1
100
60
71 22
74 29
76 6
75 21
83 17
96 15
92 7
2 74
4 24
38 12
81 20
2 76
97 43
96 21
79 44
14 30
98 23
73 42
84 30
91 6
10 15
41 24
98 28
81 45
90 18
87 18
85 37
19 44
81 34
89 24
80 8
84 6
80 10
48 41
83 41
98 29
87 49
82 20
94 35
28 14
68 49
73 10
69 91
71 59
91 11
72 13
71 9
76 68
88 35
80 27
72 38
95 38
93 20
96 2
72 79
80 19
71 17
84 40
98 32
73 13
